
Gurobi 6.5.1 (linux64) logging started Thu Apr 21 11:37:22 2016

Optimize a model with 3 rows, 9 columns and 23 nonzeros
Model has 10 quadratic objective terms
Coefficient statistics:
  Matrix range    [3e-01, 4e+00]
  Objective range [4e-02, 3e+00]
  Bounds range    [3e-01, 1e+02]
  RHS range       [1e+00, 1e+00]
Presolve time: 0.01s
Presolved: 3 rows, 9 columns, 23 nonzeros
Presolved model has 10 quadratic objective terms
Ordering time: 0.00s

Barrier statistics:
 Free vars  : 1
 AA' NZ     : 5.000e+00
 Factor NZ  : 1.000e+01
 Factor Ops : 3.000e+01 (less than 1 second per iteration)
 Threads    : 1

                  Objective                Residual
Iter       Primal          Dual         Primal    Dual     Compl     Time
   0   1.99980066e+06 -7.40402120e+06  5.00e+03 5.70e+02  1.41e+06     0s
   1   1.69203438e+03 -5.73308079e+05  5.09e+01 5.80e+00  4.21e+04     0s
   2   3.53930850e+02 -2.94016545e+04  5.09e-05 5.80e-06  1.65e+03     0s
   3   3.50146842e+02 -5.91006203e+02  1.49e-06 1.69e-07  5.23e+01     0s
   4   1.77628525e+02 -1.42200211e+02  2.30e-12 1.74e-13  1.78e+01     0s
   5   1.37662318e+02  1.16074815e+02  2.29e-12 1.16e-14  1.20e+00     0s
   6   1.26051022e+02  1.25028949e+02  1.11e-11 1.58e-15  5.68e-02     0s
   7   1.25864581e+02  1.25829838e+02  3.39e-11 3.10e-15  1.93e-03     0s
   8   1.25852942e+02  1.25852907e+02  5.09e-12 2.27e-13  1.95e-06     0s
   9   1.25852930e+02  1.25852930e+02  8.51e-12 7.58e-15  1.95e-09     0s

Barrier solved model in 9 iterations and 0.01 seconds
Optimal objective 1.25852930e+02

